num_vertices = 27;
num_edges = 54;
edges = {
    <1, 2>,
    <1, 4>,
    <1, 10>,
    <2, 3>,
    <2, 5>,
    <2, 11>,
    <3, 6>,
    <3, 12>,
    <4, 5>,
    <4, 7>,
    <4, 13>,
    <5, 6>,
    <5, 8>,
    <5, 14>,
    <6, 9>,
    <6, 15>,
    <7, 8>,
    <7, 16>,
    <8, 9>,
    <8, 17>,
    <9, 18>,
    <10, 11>,
    <10, 13>,
    <10, 19>,
    <11, 12>,
    <11, 14>,
    <11, 20>,
    <12, 15>,
    <12, 21>,
    <13, 14>,
    <13, 16>,
    <13, 22>,
    <14, 15>,
    <14, 17>,
    <14, 23>,
    <15, 18>,
    <15, 24>,
    <16, 17>,
    <16, 25>,
    <17, 18>,
    <17, 26>,
    <18, 27>,
    <19, 20>,
    <19, 22>,
    <20, 21>,
    <20, 23>,
    <21, 24>,
    <22, 23>,
    <22, 25>,
    <23, 24>,
    <23, 26>,
    <24, 27>,
    <25, 26>,
    <26, 27>
};
